CMD:
./solvers/bin/cadical --plain --no-reduce -t 1600 ./data/cnfs//circular_pointer_top_w32_d32_e0/circular_pointer_top_w32_d32_e0.26.cnf

c --- [ banner ] -------------------------------------------------------------
c 
c CaDiCaL SAT Solver
c Copyright (c) 2016-2024
c A. Biere, M. Fleury, N. Froleyks, K. Fazekas, F. Pollitt, T. Faller
c JKU Linz, University of Freiburg, TU Wien
c 
c Version 2.1.3 5296d3d2a9bf48c154ab2acb5e44625776d821bf
c g++ (Gentoo 12.3.1_p20230526 p2) 12.3.1 20230526 -Wall -Wextra -O3 -DNDEBUG
c Sat Aug 9 07:26:21 PDT 2025 Linux cedar2.int.cedar.computecanada.ca 5.14.0-362.24.2.el9_3.x86_64 x86_64
c 
c --- [ limit ] --------------------------------------------------------------
c 
c setting time limit to 1600 seconds real time (due to '-t 1600')
c 
c --- [ parsing input ] ------------------------------------------------------
c 
c reading DIMACS file from './data/cnfs//circular_pointer_top_w32_d32_e0/circular_pointer_top_w32_d32_e0.26.cnf'
c opening file to read './data/cnfs//circular_pointer_top_w32_d32_e0/circular_pointer_top_w32_d32_e0.26.cnf'
c found 'p cnf 222628 658936' header
c parsed 658936 clauses in 0.10 seconds process time
c 
c --- [ options ] ------------------------------------------------------------
c 
c   --compact=false                (different from default 'true')
c   --decompose=false              (different from default 'true')
c   --deduplicate=false            (different from default 'true')
c   --elim=false                   (different from default 'true')
c   --probe=false                  (different from default 'true')
c   --reduce=false                 (different from default 'true')
c   --subsume=false                (different from default 'true')
c   --ternary=false                (different from default 'true')
c   --transred=false               (different from default 'true')
c   --vivify=false                 (different from default 'true')
c 
c --- [ solving ] ------------------------------------------------------------
c 
c time measured in process time since initialization
c 
c  seconds   reductions  redundant  irredundant
c          MB    restarts       trail       variables
c           level   conflicts       glue          remaining
c 
c *  0.10 102  0 0   0    0    0  0% 0 606986 195459 88%
c {  0.13 105  0 0   0    0    0  0% 0 606986 195459 88%
c i  0.15 106 1827 0   0   29   27 56% 6 606986 195279 88%
c i  0.24 106 1492 0   3  586  525 45% 3 606986 195097 88%
c i  0.26 106 1395 0   4  637  573 45% 2 606986 194254 87%
c i  0.26 106 1368 0   4  650  581 44% 2 606986 193417 87%
c i  0.29 106 1306 0   7  683  612 44% 3 606986 193178 87%
c i  0.30 106 1296 0   7  688  616 44% 3 606986 191554 86%
c }  0.69 107 896 0  75 1001  915 45% 4 606986 188683 85%
c [  0.69 107  0 0  75 1001  915  0% 0 606986 188683 85%
c O  0.72 107 2728 0  75 1002  916 95% 2 606986 188683 85%
c i  1.10 107 1528 0  75 2401 1763 53% 12 606986 187788 84%
c i  1.17 107 1505 0  75 2564 1846 51% 13 606986 172347 77%
c ]  1.29 107 1101 0  76 3001 2277 52% 15 606986 172347 77%
c {  1.29 107 896 0  76 3001 2277 45% 4 606986 172347 77%
c F  1.30 107 891 0  78 3008 2284 45% 4 606986 172347 77%
c i  1.34 107 855 0  89 3049 2324 45% 4 606986 172328 77%
c i  1.34 107 820 0  89 3094 2359 44% 4 606986 172309 77%
c i  1.34 107 815 0  89 3101 2363 44% 4 606986 172248 77%
c i  1.35 107 806 0  89 3114 2371 44% 4 606986 172165 77%
c 
c  seconds    reductions  redundant  irredundant
c          MB     restarts       trail       variables
c            level   conflicts       glue          remaining
c 
c i  1.35 107 801 0  89 3121 2376 44% 4 606986 172119 77%
c i  1.35 107 796 0  89 3128 2381 43% 4 606986 172080 77%
c i  1.35 107 794 0  89 3130 2382 43% 4 606986 171515 77%
c i  1.35 107 789 0  89 3137 2388 43% 4 606986 170898 77%
c i  1.68 107 546 0 172 3698 2899 45% 6 606986 170891 77%
c i  2.11 108 403 0 266 4444 3597 49% 7 606986 170566 77%
c i  2.46 108 345 0 323 4939 4039 48% 7 606986 170562 77%
c i  2.47 108 344 0 323 4951 4049 48% 7 606986 170529 77%
c i  2.47 108 340 0 323 4991 4085 48% 7 606986 170522 77%
c i  2.47 108 338 0 323 5018 4107 48% 7 606986 170508 77%
c i  2.47 108 337 0 323 5023 4107 48% 7 606986 170504 77%
c i  2.47 108 334 0 323 5049 4128 48% 7 606986 170499 77%
c i  2.47 108 334 0 323 5055 4133 48% 7 606986 170493 77%
c #  2.59 108 265 0 329 6010 5014 48% 7 606986 170493 77%
c i  2.60 108 249 0 329 6286 5248 46% 7 606986 170474 77%
c i  2.60 108 248 0 329 6293 5253 46% 7 606986 170458 77%
c i  2.60 108 244 0 329 6376 5321 46% 7 606986 170454 77%
c i  2.60 108 243 0 329 6391 5334 46% 7 606986 170447 77%
c i  2.61 108 237 0 329 6506 5433 45% 6 606986 170403 77%
c i  2.62 108 236 0 329 6562 5482 46% 6 606986 170397 77%
c 
c  seconds    reductions  redundant  irredundant
c          MB     restarts       trail       variables
c            level   conflicts       glue          remaining
c 
c i  2.63 108 235 0 329 6635 5549 46% 6 606986 170391 77%
c i  2.67 108 228 0 339 6784 5685 46% 6 606986 170376 77%
c }  2.70 108 220 0 348 7001 5886 46% 6 606986 170376 77%
c [  2.70 108 1101 0 348 7001 5886 52% 15 606986 170376 77%
... skipped 183 lines ...
c i 126.97 155 35 0 11786 315425 231825 48% 9 401740 148980 67%
c W 134.09 170 34 0 12670 325066 220958 49% 9 393990 148980 67%
c i 137.45 170 33 0 13157 329057 224418 49% 9 393990 148968 67%
c i 137.45 170 33 0 13157 329062 224422 49% 9 393990 148956 67%
c i 137.45 170 33 0 13157 329068 224423 49% 9 393990 148943 67%
c i 137.45 170 33 0 13157 329071 224425 49% 9 393990 148923 67%
c i 139.44 170 33 0 13528 330755 225970 49% 9 393990 148920 67%
c i 139.93 170 33 0 13553 331628 226490 49% 9 393990 148750 67%
c 
c  seconds    reductions       redundant   irredundant
c           MB     restarts            trail       variables
c            level      conflicts          glue          remaining
c 
c i 145.12 170 30 0 13884 341261 232997 48% 9 393990 148364 67%
c # 154.67 170 30 0 15518 351068 241745 49% 9 393990 148364 67%
c i 163.45 170 29 0 16790 363806 252740 49% 9 393990 148289 67%
c i 164.82 170 28 0 17001 366330 255055 49% 9 393990 148272 67%
c i 167.40 170 28 0 17267 372388 260001 49% 9 393990 148136 67%
c i 168.66 170 27 0 17446 374201 261729 50% 9 393990 148132 67%
c B 172.57 170 27 0 18119 378069 265170 50% 9 393990 148132 67%
c i 173.37 170 27 0 18153 380907 266817 50% 9 393990 144600 65%
c i 179.58 170 26 0 19158 390309 275073 50% 9 393990 144598 65%
c W 188.55 177 24 0 20426 406070 259588 51% 9 379287 144598 65%
c i 190.27 177 24 0 20505 409622 261760 51% 9 379287 140923 63%
c i 191.63 177 24 0 20745 411441 263132 51% 9 379287 140914 63%
c F 203.59 177 22 0 22602 435071 282209 50% 9 379287 140914 63%
c i 203.77 177 22 0 22647 435267 282391 50% 9 379287 140908 63%
c i 205.45 177 22 0 22891 438836 285608 50% 9 379287 140906 63%
c i 210.58 177 21 0 23411 449091 292868 50% 9 379287 136190 61%
c i 214.27 177 21 0 23725 457642 299852 51% 9 379287 135487 61%
c i 214.35 177 21 0 23725 457872 300039 51% 9 379287 135452 61%
c i 214.76 177 21 0 23735 459058 300919 51% 9 379287 135025 61%
c i 214.92 177 21 0 23755 459396 301071 51% 9 379287 135023 61%
c 
c  seconds    reductions       redundant   irredundant
c           MB     restarts            trail       variables
c            level      conflicts          glue          remaining
c 
c i 214.96 177 21 0 23755 459479 301105 51% 9 379287 134525 60%
c i 214.98 177 21 0 23755 459518 301123 51% 9 379287 134519 60%
c i 214.99 177 21 0 23755 459520 301124 51% 9 379287 134508 60%
c i 215.52 177 21 0 23757 461339 302268 51% 9 379287 119645 54%
c i 215.53 177 21 0 23757 461365 302279 51% 9 379287 119464 54%
c i 215.53 177 21 0 23757 461380 302284 51% 9 379287 118880 53%
c } 215.53 177 21 0 23757 461383 302284 51% 9 379287 118615 53%
c 0 215.53 177 21 0 23757 461383 302284 51% 9 379287 118615 53%
c 
c --- [ result ] -------------------------------------------------------------
c 
s UNSATISFIABLE
c 
c --- [ run-time profiling ] -------------------------------------------------
c 
c process time taken by individual solving procedures
c (percentage relative to process time for solving)
c 
c       215.43  100.00% search
c       161.73   75.07% unstable
c        52.19   24.23% stable
c         1.48    0.69% walk
c         0.10    0.05% parse
c         0.03    0.01% lucky
c         0.00    0.00% simplify
c   =================================
c       215.43   99.95% solve
c 
c last line shows process time for solving
c (percentage relative to total process time)
c 
c --- [ statistics ] ---------------------------------------------------------
c 
c chronological:             99544        21.58 %  of conflicts
c conflicts:                461383      2141.70    per second
c decisions:               1875938      8707.93    per second
c fixed:                    104012        46.72 %  of all variables
c learned:                  447869        97.07 %  per conflict
c learned_lits:           32091346       100.00 %  learned literals
c minimized:                     0         0.00 %  learned literals
c shrunken:                9139899        28.48 %  learned literals
c minishrunken:            6996440        21.80 %  learned literals
c otfs:                       1450         0.31 %  of conflict
c propagations:         2312218765        10.73 M  per second
c rephased:                     29     15909.76    interval
c restarts:                  23757        19.42    interval
c stabilizing:                   4        36.84 %  of conflicts
c subsumed:                  57607         5.46 %  of all clauses
c strengthened:               1405         0.13 %  of all clauses
c walked:                        8     57672.88    interval
c 
c seconds are measured in process time for solving
c 
c --- [ resources ] ----------------------------------------------------------
c 
c total process time since initialization:       215.53    seconds
c total real time since initialization:          216.60    seconds
c maximum resident set size of process:          227.70    MB
c 
c --- [ shutting down ] ------------------------------------------------------
c 
c exit 20
